plate_width = 35;
n_circuits = 22;
n_shapes = 42;
widths = [3, 3, 3, 3, 3, 3, 3, 3, 3, 3, 3, 4, 4, 4, 4, 4, 4, 4, 4, 4, 4, 14];
lengths = [3, 4, 5, 6, 7, 8, 9, 10, 12, 19, 22, 3, 4, 5, 6, 7, 8, 12, 17, 20, 23, 35];
sizes = [| 3, 3 | 3, 4 | 4, 3 | 3, 5 | 5, 3 | 3, 6 | 6, 3 | 3, 7 | 7, 3 | 3, 8 | 8, 3 | 3, 9 | 9, 3 | 3, 10 | 10, 3 | 3, 12 | 12, 3 | 3, 19 | 19, 3 | 3, 22 | 22, 3 | 4, 3 | 3, 4 | 4, 4 | 4, 5 | 5, 4 | 4, 6 | 6, 4 | 4, 7 | 7, 4 | 4, 8 | 8, 4 | 4, 12 | 12, 4 | 4, 17 | 17, 4 | 4, 20 | 20, 4 | 4, 23 | 23, 4 | 14, 35 | 35, 14 |];
offsets = [| 0, 0 | 0, 0 | 0, 0 | 0, 0 | 0, 0 | 0, 0 | 0, 0 | 0, 0 | 0, 0 | 0, 0 | 0, 0 | 0, 0 | 0, 0 | 0, 0 | 0, 0 | 0, 0 | 0, 0 | 0, 0 | 0, 0 | 0, 0 | 0, 0 | 0, 0 | 0, 0 | 0, 0 | 0, 0 | 0, 0 | 0, 0 | 0, 0 | 0, 0 | 0, 0 | 0, 0 | 0, 0 | 0, 0 | 0, 0 | 0, 0 | 0, 0 | 0, 0 | 0, 0 | 0, 0 | 0, 0 | 0, 0 | 0, 0 |];
shapes = [{1}, {2}, {3}, {4}, {5}, {6}, {7}, {8}, {9}, {10}, {11}, {12}, {13}, {14}, {15}, {16}, {17}, {18}, {19}, {20}, {21}, {22}, {23}, {24}, {25}, {26}, {27}, {28}, {29}, {30}, {31}, {32}, {33}, {34}, {35}, {36}, {37}, {38}, {39}, {40}, {41}, {42}];
valid_shapes = [{1}, {2, 3}, {4, 5}, {6, 7}, {8, 9}, {10, 11}, {12, 13}, {14, 15}, {16, 17}, {18, 19}, {20, 21}, {22, 23}, {24}, {25, 26}, {27, 28}, {29, 30}, {32, 31}, {33, 34}, {35, 36}, {37, 38}, {40, 39}, {41, 42}];